(set-info :smt-lib-version 2.6)
(set-logic QF_NIA)
(set-info :source |
Generated by: Cristina Borralleras, Daniel Larraz, Albert Oliveras, Enric Rodriguez-Carbonell, Albert Rubio
Generated on: 2017-04-27
Generator: VeryMax
Application: Termination proving
Target solver: barcelogic
|)
(set-info :license "https://creativecommons.org/licenses/by/4.0/")
(set-info :category "industrial")
(set-info :status sat)
(declare-fun global_invc1_0 () Int)
(declare-fun lam0n0 () Int)
(declare-fun lam0n1 () Int)
(declare-fun lam0n3 () Int)
(declare-fun lam0n2 () Int)
(declare-fun global_invc1_1 () Int)
(declare-fun lam1n0 () Int)
(declare-fun lam1n1 () Int)
(declare-fun lam1n2 () Int)
(declare-fun lam1n4 () Int)
(declare-fun lam1n3 () Int)
(declare-fun lam2n0 () Int)
(declare-fun lam2n1 () Int)
(declare-fun lam2n2 () Int)
(declare-fun lam2n4 () Int)
(declare-fun lam2n5 () Int)
(declare-fun lam2n6 () Int)
(declare-fun lam2n7 () Int)
(declare-fun lam2n8 () Int)
(declare-fun lam2n9 () Int)
(declare-fun lam2n10 () Int)
(declare-fun lam2n11 () Int)
(declare-fun lam2n12 () Int)
(declare-fun lam2n13 () Int)
(declare-fun lam2n14 () Int)
(declare-fun lam2n15 () Int)
(declare-fun lam2n16 () Int)
(declare-fun lam2n17 () Int)
(declare-fun lam2n18 () Int)
(declare-fun lam2n19 () Int)
(declare-fun lam2n20 () Int)
(declare-fun lam2n3 () Int)
(declare-fun term_invc1_0 () Int)
(declare-fun lam3n0 () Int)
(declare-fun lam3n1 () Int)
(declare-fun lam3n2 () Int)
(declare-fun lam3n4 () Int)
(declare-fun lam3n5 () Int)
(declare-fun lam3n6 () Int)
(declare-fun lam3n7 () Int)
(declare-fun lam3n8 () Int)
(declare-fun lam3n9 () Int)
(declare-fun lam3n10 () Int)
(declare-fun lam3n11 () Int)
(declare-fun lam3n12 () Int)
(declare-fun lam3n13 () Int)
(declare-fun lam3n14 () Int)
(declare-fun lam3n15 () Int)
(declare-fun lam3n16 () Int)
(declare-fun lam3n17 () Int)
(declare-fun lam3n18 () Int)
(declare-fun lam3n19 () Int)
(declare-fun lam3n20 () Int)
(declare-fun lam3n21 () Int)
(declare-fun lam3n22 () Int)
(declare-fun lam3n23 () Int)
(declare-fun lam3n24 () Int)
(declare-fun lam3n25 () Int)
(declare-fun lam3n26 () Int)
(declare-fun lam3n27 () Int)
(declare-fun lam3n28 () Int)
(declare-fun lam3n29 () Int)
(declare-fun lam3n30 () Int)
(declare-fun lam3n31 () Int)
(declare-fun lam3n32 () Int)
(declare-fun lam3n33 () Int)
(declare-fun lam3n34 () Int)
(declare-fun lam3n35 () Int)
(declare-fun lam3n36 () Int)
(declare-fun lam3n37 () Int)
(declare-fun lam3n38 () Int)
(declare-fun lam3n39 () Int)
(declare-fun lam3n40 () Int)
(declare-fun lam3n41 () Int)
(declare-fun lam3n42 () Int)
(declare-fun lam3n43 () Int)
(declare-fun lam3n44 () Int)
(declare-fun lam3n45 () Int)
(declare-fun lam3n46 () Int)
(declare-fun lam3n47 () Int)
(declare-fun lam3n48 () Int)
(declare-fun lam3n49 () Int)
(declare-fun lam3n50 () Int)
(declare-fun lam3n51 () Int)
(declare-fun lam3n52 () Int)
(declare-fun lam3n53 () Int)
(declare-fun lam3n54 () Int)
(declare-fun lam3n55 () Int)
(declare-fun lam3n56 () Int)
(declare-fun lam3n57 () Int)
(declare-fun lam3n58 () Int)
(declare-fun lam3n59 () Int)
(declare-fun lam3n60 () Int)
(declare-fun lam3n61 () Int)
(declare-fun lam3n3 () Int)
(declare-fun term_invc1_1 () Int)
(declare-fun non_inc2_L () Bool)
(declare-fun lam4n0 () Int)
(declare-fun lam4n1 () Int)
(declare-fun lam4n2 () Int)
(declare-fun lam4n4 () Int)
(declare-fun lam4n5 () Int)
(declare-fun lam4n6 () Int)
(declare-fun lam4n7 () Int)
(declare-fun lam4n8 () Int)
(declare-fun lam4n9 () Int)
(declare-fun lam4n10 () Int)
(declare-fun lam4n11 () Int)
(declare-fun lam4n12 () Int)
(declare-fun lam4n13 () Int)
(declare-fun lam4n14 () Int)
(declare-fun lam4n15 () Int)
(declare-fun lam4n16 () Int)
(declare-fun lam4n17 () Int)
(declare-fun lam4n18 () Int)
(declare-fun lam4n19 () Int)
(declare-fun lam4n20 () Int)
(declare-fun lam4n21 () Int)
(declare-fun lam4n22 () Int)
(declare-fun lam4n23 () Int)
(declare-fun lam4n24 () Int)
(declare-fun lam4n25 () Int)
(declare-fun lam4n26 () Int)
(declare-fun lam4n27 () Int)
(declare-fun lam4n28 () Int)
(declare-fun lam4n29 () Int)
(declare-fun lam4n30 () Int)
(declare-fun lam4n31 () Int)
(declare-fun lam4n32 () Int)
(declare-fun lam4n33 () Int)
(declare-fun lam4n34 () Int)
(declare-fun lam4n35 () Int)
(declare-fun lam4n36 () Int)
(declare-fun lam4n37 () Int)
(declare-fun lam4n38 () Int)
(declare-fun lam4n39 () Int)
(declare-fun lam4n40 () Int)
(declare-fun lam4n41 () Int)
(declare-fun lam4n42 () Int)
(declare-fun lam4n43 () Int)
(declare-fun lam4n44 () Int)
(declare-fun lam4n45 () Int)
(declare-fun lam4n46 () Int)
(declare-fun lam4n47 () Int)
(declare-fun lam4n48 () Int)
(declare-fun lam4n49 () Int)
(declare-fun lam4n50 () Int)
(declare-fun lam4n51 () Int)
(declare-fun lam4n52 () Int)
(declare-fun lam4n53 () Int)
(declare-fun lam4n54 () Int)
(declare-fun lam4n55 () Int)
(declare-fun lam4n56 () Int)
(declare-fun lam4n57 () Int)
(declare-fun lam4n58 () Int)
(declare-fun lam4n59 () Int)
(declare-fun lam4n60 () Int)
(declare-fun lam4n61 () Int)
(declare-fun lam4n63 () Int)
(declare-fun lam4n62 () Int)
(declare-fun lam4n3 () Int)
(declare-fun rfc0 () Int)
(declare-fun disabled2_L () Bool)
(declare-fun bounded2_L () Bool)
(declare-fun lam5n0 () Int)
(declare-fun lam5n1 () Int)
(declare-fun lam5n2 () Int)
(declare-fun lam5n4 () Int)
(declare-fun lam5n5 () Int)
(declare-fun lam5n6 () Int)
(declare-fun lam5n7 () Int)
(declare-fun lam5n8 () Int)
(declare-fun lam5n9 () Int)
(declare-fun lam5n10 () Int)
(declare-fun lam5n11 () Int)
(declare-fun lam5n12 () Int)
(declare-fun lam5n13 () Int)
(declare-fun lam5n14 () Int)
(declare-fun lam5n15 () Int)
(declare-fun lam5n16 () Int)
(declare-fun lam5n17 () Int)
(declare-fun lam5n18 () Int)
(declare-fun lam5n19 () Int)
(declare-fun lam5n20 () Int)
(declare-fun lam5n21 () Int)
(declare-fun lam5n22 () Int)
(declare-fun lam5n23 () Int)
(declare-fun lam5n24 () Int)
(declare-fun lam5n25 () Int)
(declare-fun lam5n26 () Int)
(declare-fun lam5n27 () Int)
(declare-fun lam5n28 () Int)
(declare-fun lam5n29 () Int)
(declare-fun lam5n30 () Int)
(declare-fun lam5n31 () Int)
(declare-fun lam5n32 () Int)
(declare-fun lam5n33 () Int)
(declare-fun lam5n34 () Int)
(declare-fun lam5n35 () Int)
(declare-fun lam5n36 () Int)
(declare-fun lam5n37 () Int)
(declare-fun lam5n38 () Int)
(declare-fun lam5n39 () Int)
(declare-fun lam5n40 () Int)
(declare-fun lam5n41 () Int)
(declare-fun lam5n42 () Int)
(declare-fun lam5n43 () Int)
(declare-fun lam5n44 () Int)
(declare-fun lam5n45 () Int)
(declare-fun lam5n46 () Int)
(declare-fun lam5n47 () Int)
(declare-fun lam5n48 () Int)
(declare-fun lam5n49 () Int)
(declare-fun lam5n50 () Int)
(declare-fun lam5n51 () Int)
(declare-fun lam5n52 () Int)
(declare-fun lam5n53 () Int)
(declare-fun lam5n54 () Int)
(declare-fun lam5n55 () Int)
(declare-fun lam5n56 () Int)
(declare-fun lam5n57 () Int)
(declare-fun lam5n58 () Int)
(declare-fun lam5n59 () Int)
(declare-fun lam5n60 () Int)
(declare-fun lam5n61 () Int)
(declare-fun lam5n62 () Int)
(declare-fun lam5n3 () Int)
(declare-fun rfc1 () Int)
(declare-fun dec2_L () Bool)
(declare-fun lam6n0 () Int)
(declare-fun lam6n1 () Int)
(declare-fun lam6n2 () Int)
(declare-fun lam6n4 () Int)
(declare-fun lam6n5 () Int)
(declare-fun lam6n6 () Int)
(declare-fun lam6n7 () Int)
(declare-fun lam6n8 () Int)
(declare-fun lam6n9 () Int)
(declare-fun lam6n10 () Int)
(declare-fun lam6n11 () Int)
(declare-fun lam6n12 () Int)
(declare-fun lam6n13 () Int)
(declare-fun lam6n14 () Int)
(declare-fun lam6n15 () Int)
(declare-fun lam6n16 () Int)
(declare-fun lam6n17 () Int)
(declare-fun lam6n18 () Int)
(declare-fun lam6n19 () Int)
(declare-fun lam6n20 () Int)
(declare-fun lam6n21 () Int)
(declare-fun lam6n22 () Int)
(declare-fun lam6n23 () Int)
(declare-fun lam6n24 () Int)
(declare-fun lam6n25 () Int)
(declare-fun lam6n26 () Int)
(declare-fun lam6n27 () Int)
(declare-fun lam6n28 () Int)
(declare-fun lam6n29 () Int)
(declare-fun lam6n30 () Int)
(declare-fun lam6n31 () Int)
(declare-fun lam6n32 () Int)
(declare-fun lam6n33 () Int)
(declare-fun lam6n34 () Int)
(declare-fun lam6n35 () Int)
(declare-fun lam6n36 () Int)
(declare-fun lam6n37 () Int)
(declare-fun lam6n38 () Int)
(declare-fun lam6n39 () Int)
(declare-fun lam6n40 () Int)
(declare-fun lam6n41 () Int)
(declare-fun lam6n42 () Int)
(declare-fun lam6n43 () Int)
(declare-fun lam6n44 () Int)
(declare-fun lam6n45 () Int)
(declare-fun lam6n46 () Int)
(declare-fun lam6n47 () Int)
(declare-fun lam6n48 () Int)
(declare-fun lam6n49 () Int)
(declare-fun lam6n50 () Int)
(declare-fun lam6n51 () Int)
(declare-fun lam6n52 () Int)
(declare-fun lam6n53 () Int)
(declare-fun lam6n54 () Int)
(declare-fun lam6n55 () Int)
(declare-fun lam6n56 () Int)
(declare-fun lam6n57 () Int)
(declare-fun lam6n58 () Int)
(declare-fun lam6n59 () Int)
(declare-fun lam6n60 () Int)
(declare-fun lam6n61 () Int)
(declare-fun lam6n62 () Int)
(declare-fun lam6n3 () Int)
(declare-fun bnd_and_dec2_L () Bool)
(declare-fun GLOBAL_NT_1 () Bool)
(declare-fun global_V0_1 () Int)
(declare-fun TERM_NT_1 () Bool)
(declare-fun term_V0_1 () Int)
(declare-fun ALL_NON_INC_0 () Bool)
(declare-fun DIS_OR_ALL_NON_INC_0 () Bool)
(declare-fun SOME_BND_AND_DEC_0 () Bool)
(declare-fun V0_NIV () Int)
(declare-fun V1_NIV () Int)
(assert ( and ( >= global_invc1_0 ( - 1 ) ) ( <= global_invc1_0 1 ) ( and ( >= lam0n0 0 ) ( >= lam0n1 0 ) ( <= 0 lam0n3 ) ( < lam0n3 1 ) ( and ( = ( + ( * ( - 1 ) lam0n0 ) ( * lam0n1 ( - 99 ) ) ( * lam0n2 200 ) ) ( + global_invc1_1 ( * ( - 1 ) lam0n3 ) ) ) ( = ( + ( * lam0n1 ( - 1 ) ) ( * lam0n2 1 ) ) 0 ) ( = ( * lam0n2 ( - 1 ) ) global_invc1_0 ) ) ) ( and ( >= lam1n0 0 ) ( >= lam1n1 0 ) ( >= lam1n2 0 ) ( <= 0 lam1n4 ) ( < lam1n4 1 ) ( and ( = ( + ( * ( - 1 ) lam1n0 ) ( * lam1n1 1 ) ( * lam1n2 ( - 399 ) ) ( * lam1n3 500 ) ) ( + global_invc1_1 ( * ( - 1 ) lam1n4 ) ) ) ( = ( + ( * lam1n1 ( - 1 ) ) ( * lam1n2 ( - 1 ) ) ( * lam1n3 1 ) ) 0 ) ( = ( * lam1n3 ( - 1 ) ) global_invc1_0 ) ) ) ( and ( >= lam2n0 0 ) ( >= lam2n1 0 ) ( >= lam2n2 0 ) ( >= lam2n4 0 ) ( >= lam2n5 0 ) ( >= lam2n6 0 ) ( >= lam2n7 0 ) ( >= lam2n8 0 ) ( >= lam2n9 0 ) ( >= lam2n10 0 ) ( >= lam2n11 0 ) ( >= lam2n12 0 ) ( >= lam2n13 0 ) ( >= lam2n14 0 ) ( >= lam2n15 0 ) ( >= lam2n16 0 ) ( >= lam2n17 0 ) ( >= lam2n18 0 ) ( >= lam2n19 0 ) ( <= 0 lam2n20 ) ( < lam2n20 1 ) ( and ( = ( + ( * ( - 1 ) lam2n0 ) ( * lam2n1 ( - 199 ) ) ( * lam2n2 ( - 599 ) ) ( * lam2n3 700 ) ( * lam2n4 1 ) ( * lam2n5 2 ) ( * lam2n6 28 ) ( * lam2n7 40 ) ( * lam2n8 46 ) ( * lam2n9 47 ) ( * lam2n10 48 ) ( * lam2n11 49 ) ( * lam2n12 50 ) ( * lam2n13 51 ) ( * lam2n14 61 ) ( * lam2n15 69 ) ( * lam2n16 90 ) ( * lam2n17 100 ) ( * lam2n18 101 ) ( * lam2n19 global_invc1_1 ) ) ( + global_invc1_1 ( * ( - 1 ) lam2n20 ) ) ) ( = ( + ( * lam2n1 ( - 1 ) ) ( * lam2n2 ( - 1 ) ) ( * lam2n3 1 ) ( * lam2n4 ( - 1 ) ) ( * lam2n5 ( - 1 ) ) ( * lam2n6 ( - 1 ) ) ( * lam2n7 ( - 1 ) ) ( * lam2n8 ( - 1 ) ) ( * lam2n9 ( - 1 ) ) ( * lam2n10 ( - 1 ) ) ( * lam2n11 ( - 1 ) ) ( * lam2n12 ( - 1 ) ) ( * lam2n13 ( - 1 ) ) ( * lam2n14 ( - 1 ) ) ( * lam2n15 ( - 1 ) ) ( * lam2n16 ( - 1 ) ) ( * lam2n17 ( - 1 ) ) ( * lam2n18 ( - 1 ) ) ( * lam2n19 global_invc1_0 ) ) 0 ) ( = ( * lam2n3 ( - 1 ) ) global_invc1_0 ) ) ) ( >= term_invc1_0 ( - 1 ) ) ( <= term_invc1_0 1 ) ( and ( >= lam3n0 0 ) ( >= lam3n1 0 ) ( >= lam3n2 0 ) ( >= lam3n4 0 ) ( >= lam3n5 0 ) ( >= lam3n6 0 ) ( >= lam3n7 0 ) ( >= lam3n8 0 ) ( >= lam3n9 0 ) ( >= lam3n10 0 ) ( >= lam3n11 0 ) ( >= lam3n12 0 ) ( >= lam3n13 0 ) ( >= lam3n14 0 ) ( >= lam3n15 0 ) ( >= lam3n16 0 ) ( >= lam3n17 0 ) ( >= lam3n18 0 ) ( >= lam3n19 0 ) ( >= lam3n20 0 ) ( >= lam3n21 0 ) ( >= lam3n22 0 ) ( >= lam3n23 0 ) ( >= lam3n24 0 ) ( >= lam3n25 0 ) ( >= lam3n26 0 ) ( >= lam3n27 0 ) ( >= lam3n28 0 ) ( >= lam3n29 0 ) ( >= lam3n30 0 ) ( >= lam3n31 0 ) ( >= lam3n32 0 ) ( >= lam3n33 0 ) ( >= lam3n34 0 ) ( >= lam3n35 0 ) ( >= lam3n36 0 ) ( >= lam3n37 0 ) ( >= lam3n38 0 ) ( >= lam3n39 0 ) ( >= lam3n40 0 ) ( >= lam3n41 0 ) ( >= lam3n42 0 ) ( >= lam3n43 0 ) ( >= lam3n44 0 ) ( >= lam3n45 0 ) ( >= lam3n46 0 ) ( >= lam3n47 0 ) ( >= lam3n48 0 ) ( >= lam3n49 0 ) ( >= lam3n50 0 ) ( >= lam3n51 0 ) ( >= lam3n52 0 ) ( >= lam3n53 0 ) ( >= lam3n54 0 ) ( >= lam3n55 0 ) ( >= lam3n56 0 ) ( >= lam3n57 0 ) ( >= lam3n58 0 ) ( >= lam3n59 0 ) ( >= lam3n60 0 ) ( <= 0 lam3n61 ) ( < lam3n61 1 ) ( and ( = ( + ( * ( - 1 ) lam3n0 ) ( * lam3n1 ( - 199 ) ) ( * lam3n2 ( - 599 ) ) ( * lam3n3 700 ) ( * lam3n4 1 ) ( * lam3n5 2 ) ( * lam3n6 28 ) ( * lam3n7 40 ) ( * lam3n8 46 ) ( * lam3n9 47 ) ( * lam3n10 48 ) ( * lam3n11 49 ) ( * lam3n12 50 ) ( * lam3n13 51 ) ( * lam3n14 61 ) ( * lam3n15 69 ) ( * lam3n16 90 ) ( * lam3n17 100 ) ( * lam3n18 101 ) ( * lam3n19 50001 ) ( * lam3n20 90 ) ( * lam3n21 102 ) ( * lam3n22 124 ) ( * lam3n23 138 ) ( * lam3n24 189 ) ( * lam3n25 202 ) ( * lam3n26 237 ) ( * lam3n27 269 ) ( * lam3n28 284 ) ( * lam3n29 293 ) ( * lam3n30 297 ) ( * lam3n31 299 ) ( * lam3n32 300 ) ( * lam3n33 302 ) ( * lam3n34 344 ) ( * lam3n35 373 ) ( * lam3n36 387 ) ( * lam3n37 393 ) ( * lam3n38 397 ) ( * lam3n39 398 ) ( * lam3n40 399 ) ( * lam3n41 400 ) ( * lam3n42 401 ) ( * lam3n43 402 ) ( * lam3n44 452 ) ( * lam3n45 477 ) ( * lam3n46 490 ) ( * lam3n47 496 ) ( * lam3n48 499 ) ( * lam3n49 501 ) ( * lam3n50 502 ) ( * lam3n51 503 ) ( * lam3n52 504 ) ( * lam3n53 505 ) ( * lam3n54 506 ) ( * lam3n55 507 ) ( * lam3n56 508 ) ( * lam3n57 509 ) ( * lam3n58 510 ) ( * lam3n59 511 ) ( * lam3n60 global_invc1_1 ) ) ( + term_invc1_1 ( * ( - 1 ) lam3n61 ) ) ) ( = ( + ( * lam3n1 ( - 1 ) ) ( * lam3n2 ( - 1 ) ) ( * lam3n3 1 ) ( * lam3n4 ( - 1 ) ) ( * lam3n5 ( - 1 ) ) ( * lam3n6 ( - 1 ) ) ( * lam3n7 ( - 1 ) ) ( * lam3n8 ( - 1 ) ) ( * lam3n9 ( - 1 ) ) ( * lam3n10 ( - 1 ) ) ( * lam3n11 ( - 1 ) ) ( * lam3n12 ( - 1 ) ) ( * lam3n13 ( - 1 ) ) ( * lam3n14 ( - 1 ) ) ( * lam3n15 ( - 1 ) ) ( * lam3n16 ( - 1 ) ) ( * lam3n17 ( - 1 ) ) ( * lam3n18 ( - 1 ) ) ( * lam3n19 ( - 1 ) ) ( * lam3n20 ( - 1 ) ) ( * lam3n21 ( - 1 ) ) ( * lam3n22 ( - 1 ) ) ( * lam3n23 ( - 1 ) ) ( * lam3n24 ( - 1 ) ) ( * lam3n25 ( - 1 ) ) ( * lam3n26 ( - 1 ) ) ( * lam3n27 ( - 1 ) ) ( * lam3n28 ( - 1 ) ) ( * lam3n29 ( - 1 ) ) ( * lam3n30 ( - 1 ) ) ( * lam3n31 ( - 1 ) ) ( * lam3n32 ( - 1 ) ) ( * lam3n33 ( - 1 ) ) ( * lam3n34 ( - 1 ) ) ( * lam3n35 ( - 1 ) ) ( * lam3n36 ( - 1 ) ) ( * lam3n37 ( - 1 ) ) ( * lam3n38 ( - 1 ) ) ( * lam3n39 ( - 1 ) ) ( * lam3n40 ( - 1 ) ) ( * lam3n41 ( - 1 ) ) ( * lam3n42 ( - 1 ) ) ( * lam3n43 ( - 1 ) ) ( * lam3n44 ( - 1 ) ) ( * lam3n45 ( - 1 ) ) ( * lam3n46 ( - 1 ) ) ( * lam3n47 ( - 1 ) ) ( * lam3n48 ( - 1 ) ) ( * lam3n49 ( - 1 ) ) ( * lam3n50 ( - 1 ) ) ( * lam3n51 ( - 1 ) ) ( * lam3n52 ( - 1 ) ) ( * lam3n53 ( - 1 ) ) ( * lam3n54 ( - 1 ) ) ( * lam3n55 ( - 1 ) ) ( * lam3n56 ( - 1 ) ) ( * lam3n57 ( - 1 ) ) ( * lam3n58 ( - 1 ) ) ( * lam3n59 ( - 1 ) ) ( * lam3n60 global_invc1_0 ) ) 0 ) ( = ( * lam3n3 ( - 1 ) ) term_invc1_0 ) ) ) ( = non_inc2_L ( and ( >= lam4n0 0 ) ( >= lam4n1 0 ) ( >= lam4n2 0 ) ( >= lam4n4 0 ) ( >= lam4n5 0 ) ( >= lam4n6 0 ) ( >= lam4n7 0 ) ( >= lam4n8 0 ) ( >= lam4n9 0 ) ( >= lam4n10 0 ) ( >= lam4n11 0 ) ( >= lam4n12 0 ) ( >= lam4n13 0 ) ( >= lam4n14 0 ) ( >= lam4n15 0 ) ( >= lam4n16 0 ) ( >= lam4n17 0 ) ( >= lam4n18 0 ) ( >= lam4n19 0 ) ( >= lam4n20 0 ) ( >= lam4n21 0 ) ( >= lam4n22 0 ) ( >= lam4n23 0 ) ( >= lam4n24 0 ) ( >= lam4n25 0 ) ( >= lam4n26 0 ) ( >= lam4n27 0 ) ( >= lam4n28 0 ) ( >= lam4n29 0 ) ( >= lam4n30 0 ) ( >= lam4n31 0 ) ( >= lam4n32 0 ) ( >= lam4n33 0 ) ( >= lam4n34 0 ) ( >= lam4n35 0 ) ( >= lam4n36 0 ) ( >= lam4n37 0 ) ( >= lam4n38 0 ) ( >= lam4n39 0 ) ( >= lam4n40 0 ) ( >= lam4n41 0 ) ( >= lam4n42 0 ) ( >= lam4n43 0 ) ( >= lam4n44 0 ) ( >= lam4n45 0 ) ( >= lam4n46 0 ) ( >= lam4n47 0 ) ( >= lam4n48 0 ) ( >= lam4n49 0 ) ( >= lam4n50 0 ) ( >= lam4n51 0 ) ( >= lam4n52 0 ) ( >= lam4n53 0 ) ( >= lam4n54 0 ) ( >= lam4n55 0 ) ( >= lam4n56 0 ) ( >= lam4n57 0 ) ( >= lam4n58 0 ) ( >= lam4n59 0 ) ( >= lam4n60 0 ) ( >= lam4n61 0 ) ( <= 0 lam4n63 ) ( < lam4n63 1 ) ( <= lam4n62 1 ) ( >= lam4n62 0 ) ( and ( > ( + ( * ( - 1 ) lam4n0 ) ( * lam4n1 ( - 199 ) ) ( * lam4n2 ( - 599 ) ) ( * lam4n3 700 ) ( * lam4n4 1 ) ( * lam4n5 2 ) ( * lam4n6 28 ) ( * lam4n7 40 ) ( * lam4n8 46 ) ( * lam4n9 47 ) ( * lam4n10 48 ) ( * lam4n11 49 ) ( * lam4n12 50 ) ( * lam4n13 51 ) ( * lam4n14 61 ) ( * lam4n15 69 ) ( * lam4n16 90 ) ( * lam4n17 100 ) ( * lam4n18 101 ) ( * lam4n19 50001 ) ( * lam4n20 90 ) ( * lam4n21 102 ) ( * lam4n22 124 ) ( * lam4n23 138 ) ( * lam4n24 189 ) ( * lam4n25 202 ) ( * lam4n26 237 ) ( * lam4n27 269 ) ( * lam4n28 284 ) ( * lam4n29 293 ) ( * lam4n30 297 ) ( * lam4n31 299 ) ( * lam4n32 300 ) ( * lam4n33 302 ) ( * lam4n34 344 ) ( * lam4n35 373 ) ( * lam4n36 387 ) ( * lam4n37 393 ) ( * lam4n38 397 ) ( * lam4n39 398 ) ( * lam4n40 399 ) ( * lam4n41 400 ) ( * lam4n42 401 ) ( * lam4n43 402 ) ( * lam4n44 452 ) ( * lam4n45 477 ) ( * lam4n46 490 ) ( * lam4n47 496 ) ( * lam4n48 499 ) ( * lam4n49 501 ) ( * lam4n50 502 ) ( * lam4n51 503 ) ( * lam4n52 504 ) ( * lam4n53 505 ) ( * lam4n54 506 ) ( * lam4n55 507 ) ( * lam4n56 508 ) ( * lam4n57 509 ) ( * lam4n58 510 ) ( * lam4n59 511 ) ( * lam4n60 global_invc1_1 ) ( * lam4n61 term_invc1_1 ) ( * lam4n62 ( + 1 ( * ( - 1 ) lam4n63 ) ) ) ) 0 ) ( = ( + ( * lam4n1 ( - 1 ) ) ( * lam4n2 ( - 1 ) ) ( * lam4n3 1 ) ( * lam4n4 ( - 1 ) ) ( * lam4n5 ( - 1 ) ) ( * lam4n6 ( - 1 ) ) ( * lam4n7 ( - 1 ) ) ( * lam4n8 ( - 1 ) ) ( * lam4n9 ( - 1 ) ) ( * lam4n10 ( - 1 ) ) ( * lam4n11 ( - 1 ) ) ( * lam4n12 ( - 1 ) ) ( * lam4n13 ( - 1 ) ) ( * lam4n14 ( - 1 ) ) ( * lam4n15 ( - 1 ) ) ( * lam4n16 ( - 1 ) ) ( * lam4n17 ( - 1 ) ) ( * lam4n18 ( - 1 ) ) ( * lam4n19 ( - 1 ) ) ( * lam4n20 ( - 1 ) ) ( * lam4n21 ( - 1 ) ) ( * lam4n22 ( - 1 ) ) ( * lam4n23 ( - 1 ) ) ( * lam4n24 ( - 1 ) ) ( * lam4n25 ( - 1 ) ) ( * lam4n26 ( - 1 ) ) ( * lam4n27 ( - 1 ) ) ( * lam4n28 ( - 1 ) ) ( * lam4n29 ( - 1 ) ) ( * lam4n30 ( - 1 ) ) ( * lam4n31 ( - 1 ) ) ( * lam4n32 ( - 1 ) ) ( * lam4n33 ( - 1 ) ) ( * lam4n34 ( - 1 ) ) ( * lam4n35 ( - 1 ) ) ( * lam4n36 ( - 1 ) ) ( * lam4n37 ( - 1 ) ) ( * lam4n38 ( - 1 ) ) ( * lam4n39 ( - 1 ) ) ( * lam4n40 ( - 1 ) ) ( * lam4n41 ( - 1 ) ) ( * lam4n42 ( - 1 ) ) ( * lam4n43 ( - 1 ) ) ( * lam4n44 ( - 1 ) ) ( * lam4n45 ( - 1 ) ) ( * lam4n46 ( - 1 ) ) ( * lam4n47 ( - 1 ) ) ( * lam4n48 ( - 1 ) ) ( * lam4n49 ( - 1 ) ) ( * lam4n50 ( - 1 ) ) ( * lam4n51 ( - 1 ) ) ( * lam4n52 ( - 1 ) ) ( * lam4n53 ( - 1 ) ) ( * lam4n54 ( - 1 ) ) ( * lam4n55 ( - 1 ) ) ( * lam4n56 ( - 1 ) ) ( * lam4n57 ( - 1 ) ) ( * lam4n58 ( - 1 ) ) ( * lam4n59 ( - 1 ) ) ( * lam4n60 global_invc1_0 ) ( * lam4n61 term_invc1_0 ) ( * lam4n62 rfc0 ) ) 0 ) ( = ( + ( * lam4n3 ( - 1 ) ) ( * lam4n62 ( * ( - 1 ) rfc0 ) ) ) 0 ) ) ) ) ( = disabled2_L ( and ( = lam4n62 0 ) non_inc2_L ) ) ( = bounded2_L ( and ( >= lam5n0 0 ) ( >= lam5n1 0 ) ( >= lam5n2 0 ) ( >= lam5n4 0 ) ( >= lam5n5 0 ) ( >= lam5n6 0 ) ( >= lam5n7 0 ) ( >= lam5n8 0 ) ( >= lam5n9 0 ) ( >= lam5n10 0 ) ( >= lam5n11 0 ) ( >= lam5n12 0 ) ( >= lam5n13 0 ) ( >= lam5n14 0 ) ( >= lam5n15 0 ) ( >= lam5n16 0 ) ( >= lam5n17 0 ) ( >= lam5n18 0 ) ( >= lam5n19 0 ) ( >= lam5n20 0 ) ( >= lam5n21 0 ) ( >= lam5n22 0 ) ( >= lam5n23 0 ) ( >= lam5n24 0 ) ( >= lam5n25 0 ) ( >= lam5n26 0 ) ( >= lam5n27 0 ) ( >= lam5n28 0 ) ( >= lam5n29 0 ) ( >= lam5n30 0 ) ( >= lam5n31 0 ) ( >= lam5n32 0 ) ( >= lam5n33 0 ) ( >= lam5n34 0 ) ( >= lam5n35 0 ) ( >= lam5n36 0 ) ( >= lam5n37 0 ) ( >= lam5n38 0 ) ( >= lam5n39 0 ) ( >= lam5n40 0 ) ( >= lam5n41 0 ) ( >= lam5n42 0 ) ( >= lam5n43 0 ) ( >= lam5n44 0 ) ( >= lam5n45 0 ) ( >= lam5n46 0 ) ( >= lam5n47 0 ) ( >= lam5n48 0 ) ( >= lam5n49 0 ) ( >= lam5n50 0 ) ( >= lam5n51 0 ) ( >= lam5n52 0 ) ( >= lam5n53 0 ) ( >= lam5n54 0 ) ( >= lam5n55 0 ) ( >= lam5n56 0 ) ( >= lam5n57 0 ) ( >= lam5n58 0 ) ( >= lam5n59 0 ) ( >= lam5n60 0 ) ( >= lam5n61 0 ) ( <= 0 lam5n62 ) ( < lam5n62 1 ) ( and ( = ( + ( * ( - 1 ) lam5n0 ) ( * lam5n1 ( - 199 ) ) ( * lam5n2 ( - 599 ) ) ( * lam5n3 700 ) ( * lam5n4 1 ) ( * lam5n5 2 ) ( * lam5n6 28 ) ( * lam5n7 40 ) ( * lam5n8 46 ) ( * lam5n9 47 ) ( * lam5n10 48 ) ( * lam5n11 49 ) ( * lam5n12 50 ) ( * lam5n13 51 ) ( * lam5n14 61 ) ( * lam5n15 69 ) ( * lam5n16 90 ) ( * lam5n17 100 ) ( * lam5n18 101 ) ( * lam5n19 50001 ) ( * lam5n20 90 ) ( * lam5n21 102 ) ( * lam5n22 124 ) ( * lam5n23 138 ) ( * lam5n24 189 ) ( * lam5n25 202 ) ( * lam5n26 237 ) ( * lam5n27 269 ) ( * lam5n28 284 ) ( * lam5n29 293 ) ( * lam5n30 297 ) ( * lam5n31 299 ) ( * lam5n32 300 ) ( * lam5n33 302 ) ( * lam5n34 344 ) ( * lam5n35 373 ) ( * lam5n36 387 ) ( * lam5n37 393 ) ( * lam5n38 397 ) ( * lam5n39 398 ) ( * lam5n40 399 ) ( * lam5n41 400 ) ( * lam5n42 401 ) ( * lam5n43 402 ) ( * lam5n44 452 ) ( * lam5n45 477 ) ( * lam5n46 490 ) ( * lam5n47 496 ) ( * lam5n48 499 ) ( * lam5n49 501 ) ( * lam5n50 502 ) ( * lam5n51 503 ) ( * lam5n52 504 ) ( * lam5n53 505 ) ( * lam5n54 506 ) ( * lam5n55 507 ) ( * lam5n56 508 ) ( * lam5n57 509 ) ( * lam5n58 510 ) ( * lam5n59 511 ) ( * lam5n60 global_invc1_1 ) ( * lam5n61 term_invc1_1 ) ) ( + ( * ( - 1 ) rfc1 ) ( * ( - 1 ) lam5n62 ) ) ) ( = ( + ( * lam5n1 ( - 1 ) ) ( * lam5n2 ( - 1 ) ) ( * lam5n3 1 ) ( * lam5n4 ( - 1 ) ) ( * lam5n5 ( - 1 ) ) ( * lam5n6 ( - 1 ) ) ( * lam5n7 ( - 1 ) ) ( * lam5n8 ( - 1 ) ) ( * lam5n9 ( - 1 ) ) ( * lam5n10 ( - 1 ) ) ( * lam5n11 ( - 1 ) ) ( * lam5n12 ( - 1 ) ) ( * lam5n13 ( - 1 ) ) ( * lam5n14 ( - 1 ) ) ( * lam5n15 ( - 1 ) ) ( * lam5n16 ( - 1 ) ) ( * lam5n17 ( - 1 ) ) ( * lam5n18 ( - 1 ) ) ( * lam5n19 ( - 1 ) ) ( * lam5n20 ( - 1 ) ) ( * lam5n21 ( - 1 ) ) ( * lam5n22 ( - 1 ) ) ( * lam5n23 ( - 1 ) ) ( * lam5n24 ( - 1 ) ) ( * lam5n25 ( - 1 ) ) ( * lam5n26 ( - 1 ) ) ( * lam5n27 ( - 1 ) ) ( * lam5n28 ( - 1 ) ) ( * lam5n29 ( - 1 ) ) ( * lam5n30 ( - 1 ) ) ( * lam5n31 ( - 1 ) ) ( * lam5n32 ( - 1 ) ) ( * lam5n33 ( - 1 ) ) ( * lam5n34 ( - 1 ) ) ( * lam5n35 ( - 1 ) ) ( * lam5n36 ( - 1 ) ) ( * lam5n37 ( - 1 ) ) ( * lam5n38 ( - 1 ) ) ( * lam5n39 ( - 1 ) ) ( * lam5n40 ( - 1 ) ) ( * lam5n41 ( - 1 ) ) ( * lam5n42 ( - 1 ) ) ( * lam5n43 ( - 1 ) ) ( * lam5n44 ( - 1 ) ) ( * lam5n45 ( - 1 ) ) ( * lam5n46 ( - 1 ) ) ( * lam5n47 ( - 1 ) ) ( * lam5n48 ( - 1 ) ) ( * lam5n49 ( - 1 ) ) ( * lam5n50 ( - 1 ) ) ( * lam5n51 ( - 1 ) ) ( * lam5n52 ( - 1 ) ) ( * lam5n53 ( - 1 ) ) ( * lam5n54 ( - 1 ) ) ( * lam5n55 ( - 1 ) ) ( * lam5n56 ( - 1 ) ) ( * lam5n57 ( - 1 ) ) ( * lam5n58 ( - 1 ) ) ( * lam5n59 ( - 1 ) ) ( * lam5n60 global_invc1_0 ) ( * lam5n61 term_invc1_0 ) ) ( * ( - 1 ) rfc0 ) ) ( = ( * lam5n3 ( - 1 ) ) 0 ) ) ) ) ( = dec2_L ( and ( >= lam6n0 0 ) ( >= lam6n1 0 ) ( >= lam6n2 0 ) ( >= lam6n4 0 ) ( >= lam6n5 0 ) ( >= lam6n6 0 ) ( >= lam6n7 0 ) ( >= lam6n8 0 ) ( >= lam6n9 0 ) ( >= lam6n10 0 ) ( >= lam6n11 0 ) ( >= lam6n12 0 ) ( >= lam6n13 0 ) ( >= lam6n14 0 ) ( >= lam6n15 0 ) ( >= lam6n16 0 ) ( >= lam6n17 0 ) ( >= lam6n18 0 ) ( >= lam6n19 0 ) ( >= lam6n20 0 ) ( >= lam6n21 0 ) ( >= lam6n22 0 ) ( >= lam6n23 0 ) ( >= lam6n24 0 ) ( >= lam6n25 0 ) ( >= lam6n26 0 ) ( >= lam6n27 0 ) ( >= lam6n28 0 ) ( >= lam6n29 0 ) ( >= lam6n30 0 ) ( >= lam6n31 0 ) ( >= lam6n32 0 ) ( >= lam6n33 0 ) ( >= lam6n34 0 ) ( >= lam6n35 0 ) ( >= lam6n36 0 ) ( >= lam6n37 0 ) ( >= lam6n38 0 ) ( >= lam6n39 0 ) ( >= lam6n40 0 ) ( >= lam6n41 0 ) ( >= lam6n42 0 ) ( >= lam6n43 0 ) ( >= lam6n44 0 ) ( >= lam6n45 0 ) ( >= lam6n46 0 ) ( >= lam6n47 0 ) ( >= lam6n48 0 ) ( >= lam6n49 0 ) ( >= lam6n50 0 ) ( >= lam6n51 0 ) ( >= lam6n52 0 ) ( >= lam6n53 0 ) ( >= lam6n54 0 ) ( >= lam6n55 0 ) ( >= lam6n56 0 ) ( >= lam6n57 0 ) ( >= lam6n58 0 ) ( >= lam6n59 0 ) ( >= lam6n60 0 ) ( >= lam6n61 0 ) ( <= 0 lam6n62 ) ( < lam6n62 1 ) ( and ( = ( + ( * ( - 1 ) lam6n0 ) ( * lam6n1 ( - 199 ) ) ( * lam6n2 ( - 599 ) ) ( * lam6n3 700 ) ( * lam6n4 1 ) ( * lam6n5 2 ) ( * lam6n6 28 ) ( * lam6n7 40 ) ( * lam6n8 46 ) ( * lam6n9 47 ) ( * lam6n10 48 ) ( * lam6n11 49 ) ( * lam6n12 50 ) ( * lam6n13 51 ) ( * lam6n14 61 ) ( * lam6n15 69 ) ( * lam6n16 90 ) ( * lam6n17 100 ) ( * lam6n18 101 ) ( * lam6n19 50001 ) ( * lam6n20 90 ) ( * lam6n21 102 ) ( * lam6n22 124 ) ( * lam6n23 138 ) ( * lam6n24 189 ) ( * lam6n25 202 ) ( * lam6n26 237 ) ( * lam6n27 269 ) ( * lam6n28 284 ) ( * lam6n29 293 ) ( * lam6n30 297 ) ( * lam6n31 299 ) ( * lam6n32 300 ) ( * lam6n33 302 ) ( * lam6n34 344 ) ( * lam6n35 373 ) ( * lam6n36 387 ) ( * lam6n37 393 ) ( * lam6n38 397 ) ( * lam6n39 398 ) ( * lam6n40 399 ) ( * lam6n41 400 ) ( * lam6n42 401 ) ( * lam6n43 402 ) ( * lam6n44 452 ) ( * lam6n45 477 ) ( * lam6n46 490 ) ( * lam6n47 496 ) ( * lam6n48 499 ) ( * lam6n49 501 ) ( * lam6n50 502 ) ( * lam6n51 503 ) ( * lam6n52 504 ) ( * lam6n53 505 ) ( * lam6n54 506 ) ( * lam6n55 507 ) ( * lam6n56 508 ) ( * lam6n57 509 ) ( * lam6n58 510 ) ( * lam6n59 511 ) ( * lam6n60 global_invc1_1 ) ( * lam6n61 term_invc1_1 ) ) ( + 1 ( * ( - 1 ) lam6n62 ) ) ) ( = ( + ( * lam6n1 ( - 1 ) ) ( * lam6n2 ( - 1 ) ) ( * lam6n3 1 ) ( * lam6n4 ( - 1 ) ) ( * lam6n5 ( - 1 ) ) ( * lam6n6 ( - 1 ) ) ( * lam6n7 ( - 1 ) ) ( * lam6n8 ( - 1 ) ) ( * lam6n9 ( - 1 ) ) ( * lam6n10 ( - 1 ) ) ( * lam6n11 ( - 1 ) ) ( * lam6n12 ( - 1 ) ) ( * lam6n13 ( - 1 ) ) ( * lam6n14 ( - 1 ) ) ( * lam6n15 ( - 1 ) ) ( * lam6n16 ( - 1 ) ) ( * lam6n17 ( - 1 ) ) ( * lam6n18 ( - 1 ) ) ( * lam6n19 ( - 1 ) ) ( * lam6n20 ( - 1 ) ) ( * lam6n21 ( - 1 ) ) ( * lam6n22 ( - 1 ) ) ( * lam6n23 ( - 1 ) ) ( * lam6n24 ( - 1 ) ) ( * lam6n25 ( - 1 ) ) ( * lam6n26 ( - 1 ) ) ( * lam6n27 ( - 1 ) ) ( * lam6n28 ( - 1 ) ) ( * lam6n29 ( - 1 ) ) ( * lam6n30 ( - 1 ) ) ( * lam6n31 ( - 1 ) ) ( * lam6n32 ( - 1 ) ) ( * lam6n33 ( - 1 ) ) ( * lam6n34 ( - 1 ) ) ( * lam6n35 ( - 1 ) ) ( * lam6n36 ( - 1 ) ) ( * lam6n37 ( - 1 ) ) ( * lam6n38 ( - 1 ) ) ( * lam6n39 ( - 1 ) ) ( * lam6n40 ( - 1 ) ) ( * lam6n41 ( - 1 ) ) ( * lam6n42 ( - 1 ) ) ( * lam6n43 ( - 1 ) ) ( * lam6n44 ( - 1 ) ) ( * lam6n45 ( - 1 ) ) ( * lam6n46 ( - 1 ) ) ( * lam6n47 ( - 1 ) ) ( * lam6n48 ( - 1 ) ) ( * lam6n49 ( - 1 ) ) ( * lam6n50 ( - 1 ) ) ( * lam6n51 ( - 1 ) ) ( * lam6n52 ( - 1 ) ) ( * lam6n53 ( - 1 ) ) ( * lam6n54 ( - 1 ) ) ( * lam6n55 ( - 1 ) ) ( * lam6n56 ( - 1 ) ) ( * lam6n57 ( - 1 ) ) ( * lam6n58 ( - 1 ) ) ( * lam6n59 ( - 1 ) ) ( * lam6n60 global_invc1_0 ) ( * lam6n61 term_invc1_0 ) ) ( * ( - 1 ) rfc0 ) ) ( = ( * lam6n3 ( - 1 ) ) rfc0 ) ) ) ) ( = bnd_and_dec2_L ( and bounded2_L dec2_L ) ) ( = GLOBAL_NT_1 ( not ( = global_invc1_0 0 ) ) ) ( or ( and ( not ( <= ( + global_invc1_1 ( * global_invc1_0 global_V0_1 ) ) 0 ) ) ( <= ( + ( * ( - 1 ) global_V0_1 ) 1 ) 0 ) ( <= ( + ( * ( - 1 ) global_V0_1 ) 2 ) 0 ) ( <= ( + ( * ( - 1 ) global_V0_1 ) 28 ) 0 ) ( <= ( + ( * ( - 1 ) global_V0_1 ) 40 ) 0 ) ( <= ( + ( * ( - 1 ) global_V0_1 ) 46 ) 0 ) ( <= ( + ( * ( - 1 ) global_V0_1 ) 47 ) 0 ) ( <= ( + ( * ( - 1 ) global_V0_1 ) 48 ) 0 ) ( <= ( + ( * ( - 1 ) global_V0_1 ) 49 ) 0 ) ( <= ( + ( * ( - 1 ) global_V0_1 ) 50 ) 0 ) ( <= ( + ( * ( - 1 ) global_V0_1 ) 51 ) 0 ) ( <= ( + ( * ( - 1 ) global_V0_1 ) 61 ) 0 ) ( <= ( + ( * ( - 1 ) global_V0_1 ) 69 ) 0 ) ( <= ( + ( * ( - 1 ) global_V0_1 ) 90 ) 0 ) ( <= ( + ( * ( - 1 ) global_V0_1 ) 100 ) 0 ) ( <= ( + ( * ( - 1 ) global_V0_1 ) 101 ) 0 ) ) ( = global_invc1_0 0 ) ) ( = TERM_NT_1 ( not ( = term_invc1_0 0 ) ) ) ( or ( and ( not ( <= ( + term_invc1_1 ( * term_invc1_0 term_V0_1 ) ) 0 ) ) ( <= ( + ( * ( - 1 ) term_V0_1 ) 1 ) 0 ) ( <= ( + ( * ( - 1 ) term_V0_1 ) 2 ) 0 ) ( <= ( + ( * ( - 1 ) term_V0_1 ) 28 ) 0 ) ( <= ( + ( * ( - 1 ) term_V0_1 ) 40 ) 0 ) ( <= ( + ( * ( - 1 ) term_V0_1 ) 90 ) 0 ) ( <= ( + ( * ( - 1 ) term_V0_1 ) 46 ) 0 ) ( <= ( + ( * ( - 1 ) term_V0_1 ) 47 ) 0 ) ( <= ( + ( * ( - 1 ) term_V0_1 ) 48 ) 0 ) ( <= ( + ( * ( - 1 ) term_V0_1 ) 49 ) 0 ) ( <= ( + ( * ( - 1 ) term_V0_1 ) 50 ) 0 ) ( <= ( + ( * ( - 1 ) term_V0_1 ) 51 ) 0 ) ( <= ( + ( * ( - 1 ) term_V0_1 ) 61 ) 0 ) ( <= ( + ( * ( - 1 ) term_V0_1 ) 69 ) 0 ) ( <= ( + ( * ( - 1 ) term_V0_1 ) 90 ) 0 ) ( <= ( + ( * ( - 1 ) term_V0_1 ) 100 ) 0 ) ( <= ( + ( * ( - 1 ) term_V0_1 ) 101 ) 0 ) ( <= ( + ( * ( - 1 ) term_V0_1 ) 102 ) 0 ) ( <= ( + ( * ( - 1 ) term_V0_1 ) 124 ) 0 ) ( <= ( + ( * ( - 1 ) term_V0_1 ) 138 ) 0 ) ( <= ( + ( * ( - 1 ) term_V0_1 ) 189 ) 0 ) ( <= ( + ( * ( - 1 ) term_V0_1 ) 202 ) 0 ) ( <= ( + ( * ( - 1 ) term_V0_1 ) 237 ) 0 ) ( <= ( + ( * ( - 1 ) term_V0_1 ) 269 ) 0 ) ( <= ( + ( * ( - 1 ) term_V0_1 ) 284 ) 0 ) ( <= ( + ( * ( - 1 ) term_V0_1 ) 293 ) 0 ) ( <= ( + ( * ( - 1 ) term_V0_1 ) 297 ) 0 ) ( <= ( + ( * ( - 1 ) term_V0_1 ) 299 ) 0 ) ( <= ( + ( * ( - 1 ) term_V0_1 ) 300 ) 0 ) ( <= ( + ( * ( - 1 ) term_V0_1 ) 302 ) 0 ) ( <= ( + ( * ( - 1 ) term_V0_1 ) 344 ) 0 ) ( <= ( + ( * ( - 1 ) term_V0_1 ) 373 ) 0 ) ( <= ( + ( * ( - 1 ) term_V0_1 ) 387 ) 0 ) ( <= ( + ( * ( - 1 ) term_V0_1 ) 393 ) 0 ) ( <= ( + ( * ( - 1 ) term_V0_1 ) 397 ) 0 ) ( <= ( + ( * ( - 1 ) term_V0_1 ) 398 ) 0 ) ( <= ( + ( * ( - 1 ) term_V0_1 ) 399 ) 0 ) ( <= ( + ( * ( - 1 ) term_V0_1 ) 400 ) 0 ) ( <= ( + ( * ( - 1 ) term_V0_1 ) 401 ) 0 ) ( <= ( + ( * ( - 1 ) term_V0_1 ) 402 ) 0 ) ( <= ( + ( * ( - 1 ) term_V0_1 ) 452 ) 0 ) ( <= ( + ( * ( - 1 ) term_V0_1 ) 477 ) 0 ) ( <= ( + ( * ( - 1 ) term_V0_1 ) 490 ) 0 ) ( <= ( + ( * ( - 1 ) term_V0_1 ) 496 ) 0 ) ( <= ( + ( * ( - 1 ) term_V0_1 ) 499 ) 0 ) ( <= ( + ( * ( - 1 ) term_V0_1 ) 501 ) 0 ) ( <= ( + ( * ( - 1 ) term_V0_1 ) 502 ) 0 ) ( <= ( + ( * ( - 1 ) term_V0_1 ) 503 ) 0 ) ( <= ( + ( * ( - 1 ) term_V0_1 ) 504 ) 0 ) ( <= ( + ( * ( - 1 ) term_V0_1 ) 505 ) 0 ) ( <= ( + ( * ( - 1 ) term_V0_1 ) 506 ) 0 ) ( <= ( + ( * ( - 1 ) term_V0_1 ) 507 ) 0 ) ( <= ( + ( * ( - 1 ) term_V0_1 ) 508 ) 0 ) ( <= ( + ( * ( - 1 ) term_V0_1 ) 509 ) 0 ) ( <= ( + ( * ( - 1 ) term_V0_1 ) 510 ) 0 ) ( <= ( + ( * ( - 1 ) term_V0_1 ) 511 ) 0 ) ) ( = term_invc1_0 0 ) ) ( = ALL_NON_INC_0 non_inc2_L ) ( = DIS_OR_ALL_NON_INC_0 ( or disabled2_L ALL_NON_INC_0 ) ) ( = SOME_BND_AND_DEC_0 bnd_and_dec2_L ) ( or ( not ALL_NON_INC_0 ) ( and ( >= rfc0 ( - 2 ) ) ( <= rfc0 2 ) ( not ( = rfc0 0 ) ) ( >= rfc1 0 ) ( or SOME_BND_AND_DEC_0 ( or ( and ( <= ( + ( * rfc0 V0_NIV ) 1 ) ( * rfc0 V1_NIV ) ) ( >= ( * ( - 1 ) V0_NIV ) ( * ( - 1 ) V1_NIV ) ) ) ( = rfc0 0 ) ) ) ) ) ( or GLOBAL_NT_1 TERM_NT_1 ALL_NON_INC_0 ) ))
(check-sat)
(exit)
